# Objective value = 11
WA1n 0
WA1p 0
WA2n 0
WA2p 1
WB1n 0
WB1p 0
WB2n 0
WB2p 1
WC1n 0
WC1p 0
WC2n 0
WC2p 1
WD1n 1
WD1p 0
WE1n 0
WE1p 1
WF1n 2
WF1p 0
WT1n 0
WT1p 1
5 7
a 0
b 1
c 0
d 1
e 0
f 1
g 0
h 1
i 0
j 1
